70
1 0 30
2 0 7
2 1 19
3 0 40
3 1 48
3 2 33
4 0 1
4 1 33
4 2 23
4 3 11
5 0 3
5 1 35
5 2 12
5 3 23
5 4 5
6 0 32
6 1 41
6 2 41
6 3 41
6 4 11
6 5 23
7 0 39
7 1 11
7 2 9
7 3 38
7 4 23
7 5 11
7 6 49
8 0 33
8 1 30
8 2 48
8 3 1
8 4 32
8 5 46
8 6 23
8 7 35
9 0 30
9 1 11
9 2 45
9 3 44
9 4 41
9 5 50
9 6 1
9 7 10
9 8 3
10 0 14
10 1 2
10 2 40
10 3 30
10 4 46
10 5 40
10 6 4
10 7 33
10 8 41
10 9 40
11 0 28
11 1 46
11 2 15
11 3 2
11 4 4
11 5 29
11 6 6
11 7 4
11 8 43
11 9 21
11 10 37
12 0 45
12 1 12
12 2 47
12 3 23
12 4 4
12 5 41
12 6 11
12 7 50
12 8 28
12 9 37
12 10 11
12 11 24
13 0 18
13 1 2
13 2 47
13 3 40
13 4 7
13 5 24
13 6 6
13 7 41
13 8 17
13 9 1
13 10 34
13 11 7
13 12 12
14 0 14
14 1 23
14 2 5
14 3 9
14 4 12
14 5 5
14 6 19
14 7 1
14 8 5
14 9 42
14 10 13
14 11 9
14 12 23
14 13 18
15 0 34
15 1 8
15 2 27
15 3 47
15 4 14
15 5 18
15 6 37
15 7 19
15 8 14
15 9 14
15 10 22
15 11 36
15 12 3
15 13 40
15 14 38
16 0 39
16 1 10
16 2 5
16 3 1
16 4 25
16 5 3
16 6 1
16 7 39
16 8 15
16 9 34
16 10 15
16 11 42
16 12 26
16 13 37
16 14 3
16 15 38
17 0 36
17 1 49
17 2 50
17 3 15
17 4 29
17 5 44
17 6 35
17 7 20
17 8 18
17 9 8
17 10 39
17 11 8
17 12 19
17 13 41
17 14 24
17 15 12
17 16 7
18 0 2
18 1 34
18 2 23
18 3 30
18 4 16
18 5 32
18 6 26
18 7 4
18 8 8
18 9 23
18 10 20
18 11 36
18 12 34
18 13 46
18 14 15
18 15 22
18 16 43
18 17 46
19 0 41
19 1 41
19 2 8
19 3 18
19 4 13
19 5 17
19 6 27
19 7 22
19 8 25
19 9 47
19 10 39
19 11 50
19 12 37
19 13 46
19 14 48
19 15 33
19 16 2
19 17 20
19 18 31
20 0 23
20 1 27
20 2 50
20 3 25
20 4 20
20 5 32
20 6 35
20 7 4
20 8 15
20 9 40
20 10 23
20 11 44
20 12 27
20 13 18
20 14 28
20 15 1
20 16 33
20 17 42
20 18 39
20 19 28
21 0 15
21 1 23
21 2 14
21 3 34
21 4 18
21 5 50
21 6 28
21 7 27
21 8 28
21 9 4
21 10 15
21 11 25
21 12 11
21 13 18
21 14 11
21 15 3
21 16 14
21 17 44
21 18 13
21 19 38
21 20 8
22 0 28
22 1 24
22 2 31
22 3 10
22 4 17
22 5 1
22 6 4
22 7 17
22 8 18
22 9 9
22 10 36
22 11 34
22 12 40
22 13 18
22 14 38
22 15 46
22 16 30
22 17 41
22 18 14
22 19 30
22 20 8
22 21 29
23 0 49
23 1 6
23 2 32
23 3 19
23 4 24
23 5 28
23 6 21
23 7 36
23 8 40
23 9 43
23 10 5
23 11 4
23 12 14
23 13 4
23 14 36
23 15 35
23 16 6
23 17 26
23 18 21
23 19 9
23 20 31
23 21 9
23 22 25
24 0 9
24 1 17
24 2 26
24 3 30
24 4 39
24 5 1
24 6 43
24 7 41
24 8 16
24 9 49
24 10 39
24 11 25
24 12 39
24 13 5
24 14 50
24 15 3
24 16 2
24 17 6
24 18 8
24 19 31
24 20 31
24 21 12
24 22 7
24 23 35
25 0 25
25 1 30
25 2 42
25 3 22
25 4 23
25 5 14
25 6 36
25 7 16
25 8 45
25 9 15
25 10 22
25 11 50
25 12 47
25 13 27
25 14 12
25 15 50
25 16 23
25 17 46
25 18 14
25 19 12
25 20 15
25 21 30
25 22 36
25 23 35
25 24 42
26 0 48
26 1 18
26 2 29
26 3 21
26 4 26
26 5 11
26 6 4
26 7 36
26 8 14
26 9 18
26 10 8
26 11 45
26 12 43
26 13 32
26 14 17
26 15 40
26 16 35
26 17 23
26 18 15
26 19 6
26 20 50
26 21 27
26 22 26
26 23 43
26 24 12
26 25 12
27 0 38
27 1 27
27 2 23
27 3 13
27 4 36
27 5 17
27 6 27
27 7 12
27 8 11
27 9 33
27 10 20
27 11 3
27 12 45
27 13 3
27 14 33
27 15 34
27 16 14
27 17 25
27 18 4
27 19 31
27 20 25
27 21 18
27 22 10
27 23 44
27 24 4
27 25 33
27 26 30
28 0 20
28 1 38
28 2 16
28 3 45
28 4 38
28 5 8
28 6 36
28 7 26
28 8 24
28 9 35
28 10 24
28 11 20
28 12 6
28 13 50
28 14 25
28 15 42
28 16 16
28 17 46
28 18 33
28 19 26
28 20 49
28 21 46
28 22 26
28 23 39
28 24 41
28 25 5
28 26 13
28 27 34
29 0 27
29 1 22
29 2 15
29 3 50
29 4 24
29 5 2
29 6 32
29 7 47
29 8 27
29 9 11
29 10 42
29 11 25
29 12 39
29 13 41
29 14 48
29 15 6
29 16 46
29 17 16
29 18 4
29 19 4
29 20 28
29 21 12
29 22 8
29 23 27
29 24 48
29 25 7
29 26 22
29 27 24
29 28 40
30 0 16
30 1 20
30 2 37
30 3 46
30 4 29
30 5 15
30 6 46
30 7 17
30 8 13
30 9 27
30 10 49
30 11 43
30 12 45
30 13 31
30 14 29
30 15 48
30 16 21
30 17 9
30 18 36
30 19 6
30 20 43
30 21 26
30 22 10
30 23 18
30 24 34
30 25 37
30 26 36
30 27 50
30 28 26
30 29 49
31 0 42
31 1 32
31 2 40
31 3 50
31 4 11
31 5 4
31 6 19
31 7 22
31 8 33
31 9 29
31 10 19
31 11 43
31 12 41
31 13 32
31 14 1
31 15 29
31 16 42
31 17 19
31 18 28
31 19 20
31 20 12
31 21 43
31 22 11
31 23 2
31 24 30
31 25 17
31 26 21
31 27 3
31 28 49
31 29 3
31 30 33
32 0 11
32 1 13
32 2 48
32 3 8
32 4 28
32 5 38
32 6 35
32 7 40
32 8 4
32 9 29
32 10 39
32 11 47
32 12 23
32 13 43
32 14 22
32 15 30
32 16 3
32 17 43
32 18 44
32 19 27
32 20 30
32 21 13
32 22 47
32 23 22
32 24 43
32 25 25
32 26 7
32 27 27
32 28 22
32 29 32
32 30 41
32 31 35
33 0 25
33 1 20
33 2 45
33 3 25
33 4 45
33 5 15
33 6 11
33 7 26
33 8 7
33 9 35
33 10 32
33 11 33
33 12 13
33 13 38
33 14 26
33 15 27
33 16 12
33 17 11
33 18 47
33 19 20
33 20 36
33 21 23
33 22 44
33 23 25
33 24 19
33 25 28
33 26 22
33 27 23
33 28 38
33 29 1
33 30 32
33 31 44
33 32 30
34 0 34
34 1 10
34 2 48
34 3 11
34 4 30
34 5 36
34 6 24
34 7 10
34 8 8
34 9 45
34 10 42
34 11 19
34 12 44
34 13 44
34 14 4
34 15 8
34 16 4
34 17 28
34 18 24
34 19 25
34 20 7
34 21 43
34 22 44
34 23 4
34 24 17
34 25 4
34 26 30
34 27 26
34 28 47
34 29 30
34 30 3
34 31 30
34 32 41
34 33 10
35 0 10
35 1 6
35 2 42
35 3 2
35 4 17
35 5 21
35 6 43
35 7 23
35 8 3
35 9 1
35 10 41
35 11 10
35 12 16
35 13 40
35 14 33
35 15 22
35 16 48
35 17 32
35 18 34
35 19 46
35 20 2
35 21 33
35 22 45
35 23 50
35 24 38
35 25 47
35 26 9
35 27 30
35 28 13
35 29 6
35 30 20
35 31 46
35 32 3
35 33 32
35 34 4
36 0 42
36 1 1
36 2 37
36 3 43
36 4 18
36 5 28
36 6 31
36 7 50
36 8 3
36 9 40
36 10 3
36 11 37
36 12 45
36 13 20
36 14 39
36 15 11
36 16 40
36 17 1
36 18 47
36 19 12
36 20 18
36 21 40
36 22 46
36 23 6
36 24 14
36 25 9
36 26 6
36 27 18
36 28 50
36 29 45
36 30 13
36 31 41
36 32 27
36 33 15
36 34 36
36 35 50
37 0 40
37 1 44
37 2 41
37 3 7
37 4 36
37 5 2
37 6 42
37 7 14
37 8 49
37 9 9
37 10 25
37 11 50
37 12 5
37 13 48
37 14 2
37 15 46
37 16 23
37 17 3
37 18 5
37 19 13
37 20 7
37 21 36
37 22 7
37 23 27
37 24 43
37 25 16
37 26 48
37 27 26
37 28 20
37 29 14
37 30 37
37 31 21
37 32 13
37 33 17
37 34 25
37 35 41
37 36 20
38 0 47
38 1 50
38 2 47
38 3 20
38 4 8
38 5 21
38 6 6
38 7 14
38 8 28
38 9 16
38 10 25
38 11 43
38 12 47
38 13 44
38 14 33
38 15 27
38 16 27
38 17 10
38 18 12
38 19 30
38 20 28
38 21 13
38 22 10
38 23 29
38 24 48
38 25 45
38 26 2
38 27 19
38 28 29
38 29 42
38 30 50
38 31 6
38 32 27
38 33 24
38 34 25
38 35 34
38 36 6
38 37 10
39 0 41
39 1 33
39 2 36
39 3 22
39 4 9
39 5 20
39 6 21
39 7 23
39 8 26
39 9 37
39 10 27
39 11 43
39 12 34
39 13 6
39 14 4
39 15 10
39 16 41
39 17 4
39 18 35
39 19 8
39 20 8
39 21 8
39 22 2
39 23 16
39 24 29
39 25 43
39 26 15
39 27 12
39 28 26
39 29 5
39 30 19
39 31 28
39 32 12
39 33 26
39 34 48
39 35 18
39 36 11
39 37 9
39 38 32
40 0 43
40 1 40
40 2 45
40 3 25
40 4 14
40 5 32
40 6 6
40 7 5
40 8 21
40 9 49
40 10 46
40 11 42
40 12 14
40 13 47
40 14 44
40 15 30
40 16 39
40 17 43
40 18 25
40 19 42
40 20 20
40 21 42
40 22 40
40 23 9
40 24 16
40 25 39
40 26 2
40 27 3
40 28 21
40 29 29
40 30 33
40 31 16
40 32 48
40 33 29
40 34 7
40 35 23
40 36 11
40 37 43
40 38 6
40 39 7
41 0 10
41 1 16
41 2 50
41 3 11
41 4 45
41 5 49
41 6 6
41 7 3
41 8 20
41 9 8
41 10 45
41 11 18
41 12 7
41 13 3
41 14 35
41 15 19
41 16 22
41 17 36
41 18 19
41 19 24
41 20 16
41 21 19
41 22 31
41 23 20
41 24 27
41 25 38
41 26 29
41 27 18
41 28 5
41 29 33
41 30 25
41 31 24
41 32 21
41 33 7
41 34 13
41 35 30
41 36 29
41 37 39
41 38 45
41 39 31
41 40 39
42 0 14
42 1 48
42 2 8
42 3 41
42 4 5
42 5 33
42 6 45
42 7 2
42 8 37
42 9 38
42 10 50
42 11 11
42 12 19
42 13 13
42 14 26
42 15 15
42 16 22
42 17 18
42 18 29
42 19 1
42 20 25
42 21 30
42 22 39
42 23 35
42 24 44
42 25 33
42 26 17
42 27 40
42 28 17
42 29 31
42 30 23
42 31 50
42 32 3
42 33 27
42 34 12
42 35 2
42 36 37
42 37 21
42 38 12
42 39 22
42 40 23
42 41 19
43 0 8
43 1 34
43 2 35
43 3 9
43 4 29
43 5 44
43 6 30
43 7 32
43 8 18
43 9 38
43 10 20
43 11 29
43 12 29
43 13 16
43 14 34
43 15 9
43 16 43
43 17 49
43 18 34
43 19 5
43 20 15
43 21 27
43 22 47
43 23 31
43 24 40
43 25 28
43 26 10
43 27 35
43 28 3
43 29 8
43 30 46
43 31 27
43 32 43
43 33 39
43 34 6
43 35 23
43 36 10
43 37 46
43 38 24
43 39 35
43 40 23
43 41 42
43 42 28
44 0 33
44 1 39
44 2 17
44 3 45
44 4 46
44 5 7
44 6 29
44 7 15
44 8 31
44 9 44
44 10 21
44 11 21
44 12 13
44 13 38
44 14 21
44 15 27
44 16 6
44 17 36
44 18 1
44 19 7
44 20 33
44 21 42
44 22 4
44 23 40
44 24 31
44 25 18
44 26 4
44 27 13
44 28 44
44 29 30
44 30 28
44 31 42
44 32 49
44 33 13
44 34 27
44 35 31
44 36 6
44 37 16
44 38 3
44 39 41
44 40 50
44 41 25
44 42 9
44 43 33
45 0 33
45 1 16
45 2 47
45 3 15
45 4 19
45 5 37
45 6 4
45 7 34
45 8 12
45 9 12
45 10 35
45 11 34
45 12 36
45 13 42
45 14 1
45 15 24
45 16 36
45 17 3
45 18 3
45 19 18
45 20 37
45 21 18
45 22 28
45 23 12
45 24 6
45 25 9
45 26 48
45 27 23
45 28 27
45 29 28
45 30 47
45 31 50
45 32 7
45 33 21
45 34 39
45 35 2
45 36 10
45 37 18
45 38 38
45 39 8
45 40 1
45 41 7
45 42 17
45 43 4
45 44 19
46 0 40
46 1 28
46 2 30
46 3 44
46 4 7
46 5 11
46 6 48
46 7 9
46 8 20
46 9 42
46 10 48
46 11 24
46 12 35
46 13 43
46 14 25
46 15 7
46 16 6
46 17 19
46 18 22
46 19 12
46 20 18
46 21 44
46 22 39
46 23 17
46 24 8
46 25 42
46 26 37
46 27 43
46 28 3
46 29 14
46 30 11
46 31 36
46 32 15
46 33 27
46 34 29
46 35 13
46 36 38
46 37 44
46 38 37
46 39 31
46 40 12
46 41 35
46 42 16
46 43 48
46 44 29
46 45 27
47 0 49
47 1 13
47 2 18
47 3 41
47 4 11
47 5 36
47 6 15
47 7 32
47 8 29
47 9 34
47 10 20
47 11 21
47 12 35
47 13 46
47 14 24
47 15 23
47 16 38
47 17 29
47 18 41
47 19 49
47 20 16
47 21 50
47 22 47
47 23 35
47 24 32
47 25 25
47 26 41
47 27 19
47 28 37
47 29 27
47 30 38
47 31 42
47 32 3
47 33 50
47 34 9
47 35 13
47 36 17
47 37 29
47 38 39
47 39 41
47 40 7
47 41 12
47 42 40
47 43 4
47 44 50
47 45 28
47 46 23
48 0 25
48 1 15
48 2 17
48 3 39
48 4 6
48 5 16
48 6 23
48 7 18
48 8 15
48 9 46
48 10 19
48 11 32
48 12 50
48 13 2
48 14 25
48 15 50
48 16 43
48 17 32
48 18 6
48 19 36
48 20 17
48 21 6
48 22 5
48 23 13
48 24 32
48 25 10
48 26 8
48 27 41
48 28 40
48 29 36
48 30 23
48 31 3
48 32 33
48 33 45
48 34 5
48 35 7
48 36 15
48 37 2
48 38 18
48 39 44
48 40 14
48 41 37
48 42 3
48 43 16
48 44 34
48 45 49
48 46 22
48 47 17
49 0 43
49 1 44
49 2 2
49 3 41
49 4 23
49 5 31
49 6 45
49 7 30
49 8 39
49 9 8
49 10 41
49 11 18
49 12 3
49 13 34
49 14 32
49 15 47
49 16 49
49 17 36
49 18 33
49 19 42
49 20 9
49 21 31
49 22 35
49 23 3
49 24 7
49 25 31
49 26 24
49 27 10
49 28 26
49 29 40
49 30 13
49 31 34
49 32 20
49 33 37
49 34 46
49 35 34
49 36 37
49 37 17
49 38 45
49 39 36
49 40 21
49 41 29
49 42 40
49 43 14
49 44 43
49 45 46
49 46 21
49 47 44
49 48 13
50 0 19
50 1 27
50 2 20
50 3 32
50 4 12
50 5 43
50 6 37
50 7 26
50 8 2
50 9 43
50 10 35
50 11 31
50 12 37
50 13 13
50 14 14
50 15 14
50 16 23
50 17 33
50 18 13
50 19 6
50 20 32
50 21 22
50 22 49
50 23 16
50 24 38
50 25 48
50 26 41
50 27 35
50 28 11
50 29 27
50 30 13
50 31 4
50 32 33
50 33 50
50 34 20
50 35 45
50 36 40
50 37 31
50 38 24
50 39 1
50 40 48
50 41 35
50 42 3
50 43 10
50 44 28
50 45 7
50 46 16
50 47 30
50 48 9
50 49 47
51 0 46
51 1 14
51 2 12
51 3 13
51 4 42
51 5 37
51 6 8
51 7 20
51 8 12
51 9 34
51 10 36
51 11 8
51 12 35
51 13 42
51 14 44
51 15 7
51 16 3
51 17 22
51 18 15
51 19 10
51 20 10
51 21 17
51 22 15
51 23 37
51 24 36
51 25 24
51 26 4
51 27 50
51 28 22
51 29 41
51 30 19
51 31 12
51 32 42
51 33 42
51 34 44
51 35 26
51 36 14
51 37 28
51 38 3
51 39 29
51 40 15
51 41 24
51 42 17
51 43 43
51 44 25
51 45 40
51 46 29
51 47 44
51 48 36
51 49 8
51 50 26
52 0 10
52 1 33
52 2 16
52 3 27
52 4 7
52 5 45
52 6 43
52 7 36
52 8 21
52 9 12
52 10 38
52 11 22
52 12 45
52 13 34
52 14 11
52 15 36
52 16 43
52 17 21
52 18 16
52 19 2
52 20 15
52 21 41
52 22 21
52 23 18
52 24 37
52 25 7
52 26 6
52 27 46
52 28 48
52 29 21
52 30 16
52 31 23
52 32 40
52 33 46
52 34 46
52 35 10
52 36 17
52 37 6
52 38 43
52 39 1
52 40 25
52 41 39
52 42 34
52 43 12
52 44 6
52 45 49
52 46 38
52 47 49
52 48 21
52 49 49
52 50 10
52 51 22
53 0 37
53 1 11
53 2 25
53 3 49
53 4 19
53 5 48
53 6 43
53 7 15
53 8 1
53 9 20
53 10 30
53 11 44
53 12 32
53 13 2
53 14 15
53 15 20
53 16 13
53 17 39
53 18 10
53 19 11
53 20 41
53 21 11
53 22 9
53 23 28
53 24 50
53 25 41
53 26 38
53 27 19
53 28 44
53 29 45
53 30 2
53 31 50
53 32 23
53 33 47
53 34 21
53 35 41
53 36 45
53 37 27
53 38 1
53 39 42
53 40 33
53 41 33
53 42 9
53 43 43
53 44 46
53 45 21
53 46 39
53 47 19
53 48 9
53 49 31
53 50 38
53 51 34
53 52 27
54 0 13
54 1 22
54 2 37
54 3 29
54 4 12
54 5 24
54 6 36
54 7 23
54 8 38
54 9 23
54 10 18
54 11 25
54 12 9
54 13 28
54 14 21
54 15 49
54 16 16
54 17 30
54 18 47
54 19 19
54 20 22
54 21 32
54 22 17
54 23 22
54 24 25
54 25 49
54 26 1
54 27 43
54 28 15
54 29 37
54 30 26
54 31 20
54 32 34
54 33 3
54 34 6
54 35 44
54 36 41
54 37 8
54 38 21
54 39 1
54 40 21
54 41 39
54 42 28
54 43 19
54 44 10
54 45 4
54 46 41
54 47 47
54 48 3
54 49 30
54 50 40
54 51 35
54 52 40
54 53 8
55 0 28
55 1 28
55 2 8
55 3 36
55 4 21
55 5 28
55 6 46
55 7 27
55 8 5
55 9 39
55 10 45
55 11 8
55 12 32
55 13 45
55 14 11
55 15 4
55 16 50
55 17 50
55 18 22
55 19 7
55 20 30
55 21 5
55 22 1
55 23 48
55 24 5
55 25 35
55 26 24
55 27 4
55 28 47
55 29 5
55 30 6
55 31 20
55 32 35
55 33 17
55 34 16
55 35 9
55 36 17
55 37 3
55 38 26
55 39 46
55 40 29
55 41 34
55 42 24
55 43 25
55 44 16
55 45 33
55 46 36
55 47 31
55 48 33
55 49 26
55 50 38
55 51 23
55 52 46
55 53 10
55 54 46
56 0 48
56 1 43
56 2 44
56 3 33
56 4 8
56 5 38
56 6 9
56 7 34
56 8 31
56 9 20
56 10 24
56 11 24
56 12 42
56 13 42
56 14 33
56 15 34
56 16 47
56 17 20
56 18 40
56 19 36
56 20 17
56 21 40
56 22 14
56 23 35
56 24 10
56 25 42
56 26 20
56 27 3
56 28 28
56 29 2
56 30 40
56 31 43
56 32 35
56 33 39
56 34 38
56 35 33
56 36 3
56 37 3
56 38 28
56 39 7
56 40 37
56 41 12
56 42 20
56 43 10
56 44 28
56 45 36
56 46 16
56 47 48
56 48 1
56 49 43
56 50 28
56 51 5
56 52 29
56 53 45
56 54 46
56 55 10
57 0 19
57 1 31
57 2 9
57 3 20
57 4 5
57 5 49
57 6 31
57 7 8
57 8 35
57 9 9
57 10 19
57 11 2
57 12 7
57 13 27
57 14 49
57 15 4
57 16 11
57 17 12
57 18 12
57 19 34
57 20 29
57 21 5
57 22 25
57 23 28
57 24 1
57 25 33
57 26 4
57 27 42
57 28 41
57 29 6
57 30 45
57 31 25
57 32 44
57 33 20
57 34 5
57 35 37
57 36 33
57 37 41
57 38 50
57 39 47
57 40 19
57 41 24
57 42 26
57 43 18
57 44 46
57 45 19
57 46 17
57 47 26
57 48 13
57 49 26
57 50 46
57 51 13
57 52 28
57 53 49
57 54 22
57 55 33
57 56 10
58 0 17
58 1 15
58 2 24
58 3 15
58 4 10
58 5 35
58 6 27
58 7 31
58 8 18
58 9 12
58 10 22
58 11 37
58 12 15
58 13 46
58 14 36
58 15 5
58 16 40
58 17 36
58 18 38
58 19 8
58 20 37
58 21 33
58 22 26
58 23 39
58 24 35
58 25 7
58 26 47
58 27 33
58 28 33
58 29 47
58 30 9
58 31 14
58 32 49
58 33 48
58 34 19
58 35 50
58 36 30
58 37 47
58 38 28
58 39 36
58 40 50
58 41 24
58 42 42
58 43 43
58 44 13
58 45 6
58 46 42
58 47 10
58 48 23
58 49 22
58 50 20
58 51 40
58 52 16
58 53 11
58 54 32
58 55 19
58 56 27
58 57 24
59 0 50
59 1 22
59 2 19
59 3 28
59 4 6
59 5 24
59 6 26
59 7 31
59 8 9
59 9 30
59 10 5
59 11 24
59 12 30
59 13 29
59 14 34
59 15 27
59 16 35
59 17 26
59 18 9
59 19 50
59 20 6
59 21 3
59 22 25
59 23 44
59 24 6
59 25 3
59 26 41
59 27 24
59 28 24
59 29 22
59 30 19
59 31 16
59 32 19
59 33 4
59 34 42
59 35 31
59 36 8
59 37 27
59 38 24
59 39 36
59 40 25
59 41 30
59 42 14
59 43 23
59 44 48
59 45 41
59 46 4
59 47 1
59 48 42
59 49 10
59 50 42
59 51 37
59 52 15
59 53 1
59 54 11
59 55 9
59 56 42
59 57 23
59 58 30
60 0 10
60 1 11
60 2 7
60 3 35
60 4 49
60 5 19
60 6 13
60 7 33
60 8 8
60 9 13
60 10 38
60 11 18
60 12 29
60 13 13
60 14 14
60 15 3
60 16 12
60 17 43
60 18 21
60 19 45
60 20 21
60 21 29
60 22 28
60 23 31
60 24 16
60 25 31
60 26 28
60 27 38
60 28 21
60 29 11
60 30 41
60 31 2
60 32 21
60 33 10
60 34 26
60 35 35
60 36 32
60 37 2
60 38 11
60 39 49
60 40 3
60 41 4
60 42 1
60 43 14
60 44 26
60 45 21
60 46 41
60 47 14
60 48 27
60 49 42
60 50 35
60 51 10
60 52 9
60 53 19
60 54 13
60 55 13
60 56 25
60 57 15
60 58 12
60 59 28
61 0 28
61 1 3
61 2 17
61 3 13
61 4 25
61 5 18
61 6 21
61 7 37
61 8 25
61 9 38
61 10 43
61 11 48
61 12 2
61 13 29
61 14 40
61 15 19
61 16 36
61 17 16
61 18 9
61 19 6
61 20 20
61 21 19
61 22 18
61 23 3
61 24 36
61 25 13
61 26 6
61 27 13
61 28 46
61 29 8
61 30 38
61 31 46
61 32 30
61 33 48
61 34 30
61 35 25
61 36 9
61 37 42
61 38 32
61 39 49
61 40 37
61 41 41
61 42 35
61 43 16
61 44 33
61 45 26
61 46 13
61 47 25
61 48 21
61 49 19
61 50 15
61 51 40
61 52 12
61 53 22
61 54 23
61 55 3
61 56 23
61 57 17
61 58 6
61 59 23
61 60 4
62 0 3
62 1 49
62 2 26
62 3 25
62 4 37
62 5 30
62 6 35
62 7 28
62 8 24
62 9 41
62 10 40
62 11 25
62 12 45
62 13 47
62 14 44
62 15 19
62 16 49
62 17 11
62 18 30
62 19 44
62 20 25
62 21 50
62 22 45
62 23 43
62 24 44
62 25 28
62 26 41
62 27 43
62 28 23
62 29 22
62 30 26
62 31 22
62 32 23
62 33 46
62 34 50
62 35 16
62 36 2
62 37 39
62 38 4
62 39 8
62 40 19
62 41 31
62 42 22
62 43 2
62 44 30
62 45 24
62 46 4
62 47 29
62 48 49
62 49 10
62 50 16
62 51 21
62 52 34
62 53 4
62 54 5
62 55 26
62 56 6
62 57 32
62 58 25
62 59 20
62 60 33
62 61 25
63 0 25
63 1 16
63 2 50
63 3 44
63 4 20
63 5 6
63 6 41
63 7 3
63 8 29
63 9 49
63 10 19
63 11 32
63 12 21
63 13 32
63 14 50
63 15 48
63 16 25
63 17 31
63 18 44
63 19 25
63 20 26
63 21 19
63 22 24
63 23 18
63 24 28
63 25 47
63 26 30
63 27 10
63 28 21
63 29 35
63 30 34
63 31 45
63 32 21
63 33 5
63 34 48
63 35 20
63 36 40
63 37 6
63 38 46
63 39 44
63 40 25
63 41 25
63 42 33
63 43 27
63 44 8
63 45 37
63 46 8
63 47 40
63 48 20
63 49 42
63 50 50
63 51 8
63 52 43
63 53 17
63 54 32
63 55 33
63 56 27
63 57 17
63 58 18
63 59 13
63 60 25
63 61 26
63 62 26
64 0 30
64 1 35
64 2 6
64 3 41
64 4 14
64 5 38
64 6 32
64 7 28
64 8 11
64 9 47
64 10 33
64 11 10
64 12 49
64 13 25
64 14 45
64 15 33
64 16 10
64 17 15
64 18 30
64 19 7
64 20 2
64 21 10
64 22 46
64 23 25
64 24 44
64 25 43
64 26 23
64 27 23
64 28 22
64 29 40
64 30 36
64 31 50
64 32 43
64 33 38
64 34 37
64 35 39
64 36 34
64 37 44
64 38 10
64 39 44
64 40 31
64 41 17
64 42 1
64 43 19
64 44 37
64 45 8
64 46 41
64 47 8
64 48 11
64 49 20
64 50 17
64 51 3
64 52 41
64 53 13
64 54 48
64 55 32
64 56 48
64 57 26
64 58 31
64 59 34
64 60 45
64 61 7
64 62 20
64 63 11
65 0 13
65 1 27
65 2 22
65 3 19
65 4 4
65 5 20
65 6 24
65 7 25
65 8 12
65 9 5
65 10 32
65 11 22
65 12 33
65 13 17
65 14 24
65 15 45
65 16 37
65 17 11
65 18 25
65 19 6
65 20 2
65 21 7
65 22 27
65 23 16
65 24 1
65 25 6
65 26 35
65 27 47
65 28 23
65 29 26
65 30 42
65 31 10
65 32 38
65 33 50
65 34 37
65 35 43
65 36 18
65 37 29
65 38 20
65 39 48
65 40 44
65 41 48
65 42 12
65 43 3
65 44 39
65 45 12
65 46 1
65 47 11
65 48 30
65 49 4
65 50 37
65 51 33
65 52 10
65 53 36
65 54 48
65 55 5
65 56 16
65 57 26
65 58 12
65 59 40
65 60 29
65 61 34
65 62 32
65 63 14
65 64 39
66 0 35
66 1 17
66 2 41
66 3 41
66 4 20
66 5 8
66 6 21
66 7 50
66 8 35
66 9 9
66 10 46
66 11 12
66 12 30
66 13 46
66 14 7
66 15 25
66 16 33
66 17 40
66 18 33
66 19 32
66 20 20
66 21 39
66 22 12
66 23 13
66 24 12
66 25 20
66 26 5
66 27 21
66 28 36
66 29 29
66 30 37
66 31 6
66 32 14
66 33 4
66 34 38
66 35 10
66 36 48
66 37 11
66 38 1
66 39 38
66 40 28
66 41 23
66 42 7
66 43 22
66 44 10
66 45 44
66 46 43
66 47 6
66 48 23
66 49 30
66 50 11
66 51 36
66 52 21
66 53 44
66 54 22
66 55 25
66 56 5
66 57 2
66 58 22
66 59 41
66 60 24
66 61 42
66 62 16
66 63 4
66 64 3
66 65 50
67 0 25
67 1 34
67 2 5
67 3 20
67 4 25
67 5 3
67 6 38
67 7 40
67 8 43
67 9 1
67 10 19
67 11 49
67 12 12
67 13 7
67 14 23
67 15 16
67 16 4
67 17 38
67 18 27
67 19 24
67 20 6
67 21 48
67 22 33
67 23 36
67 24 33
67 25 22
67 26 12
67 27 46
67 28 36
67 29 24
67 30 24
67 31 18
67 32 41
67 33 50
67 34 44
67 35 40
67 36 35
67 37 26
67 38 6
67 39 31
67 40 41
67 41 41
67 42 31
67 43 33
67 44 24
67 45 13
67 46 24
67 47 16
67 48 9
67 49 7
67 50 26
67 51 9
67 52 8
67 53 38
67 54 43
67 55 40
67 56 24
67 57 32
67 58 3
67 59 34
67 60 8
67 61 32
67 62 35
67 63 33
67 64 49
67 65 20
67 66 5
68 0 1
68 1 5
68 2 30
68 3 27
68 4 8
68 5 40
68 6 2
68 7 4
68 8 36
68 9 23
68 10 10
68 11 44
68 12 12
68 13 9
68 14 14
68 15 31
68 16 48
68 17 16
68 18 20
68 19 22
68 20 18
68 21 46
68 22 34
68 23 26
68 24 21
68 25 45
68 26 23
68 27 7
68 28 36
68 29 7
68 30 37
68 31 45
68 32 47
68 33 20
68 34 29
68 35 25
68 36 20
68 37 12
68 38 9
68 39 3
68 40 22
68 41 22
68 42 39
68 43 50
68 44 4
68 45 48
68 46 33
68 47 11
68 48 12
68 49 40
68 50 34
68 51 27
68 52 16
68 53 46
68 54 28
68 55 3
68 56 41
68 57 39
68 58 22
68 59 46
68 60 32
68 61 3
68 62 21
68 63 12
68 64 50
68 65 47
68 66 28
68 67 34
69 0 10
69 1 33
69 2 5
69 3 28
69 4 25
69 5 24
69 6 48
69 7 35
69 8 4
69 9 10
69 10 44
69 11 11
69 12 45
69 13 38
69 14 41
69 15 9
69 16 21
69 17 39
69 18 13
69 19 32
69 20 5
69 21 36
69 22 36
69 23 25
69 24 45
69 25 25
69 26 25
69 27 21
69 28 4
69 29 18
69 30 28
69 31 18
69 32 10
69 33 17
69 34 3
69 35 44
69 36 4
69 37 1
69 38 40
69 39 44
69 40 47
69 41 45
69 42 37
69 43 36
69 44 16
69 45 46
69 46 19
69 47 43
69 48 15
69 49 39
69 50 30
69 51 11
69 52 47
69 53 16
69 54 3
69 55 8
69 56 17
69 57 40
69 58 36
69 59 31
69 60 27
69 61 50
69 62 26
69 63 5
69 64 1
69 65 34
69 66 37
69 67 1
69 68 44
